50
23230

374 941
931 492
162 296
656 886
531 791
294 270
560 152
722 628
496 862
431 825
653 462
546 153
567 633
821 267
897 239
788 555
988 484
691 384
324 463
422 802
536 645
693 791
704 692
673 636
227 42
116 555
351 72
46 483
941 923
770 677
806 648
730 119
2 684
429 697
458 812
149 635
86 503
98 877
985 660
246 628
291 363
13 78
760 3
225 653
438 643
758 819
458 977
452 559
653 211
606 864
